n= 20; m= 6;


39	42	22	18	28	34	12	43	37	17	30	15	18	3	2	26	24	45	26	38
32	8	9	42	11	12	8	6	5	4	1	7	13	45	43	27	7	33	13	43
32	29	18	41	30	19	38	8	22	14	47	20	35	22	50	26	26	33	42	28
24	1	8	38	20	23	38	27	46	20	31	23	21	13	12	3	8	23	38	38
20	30	4	13	14	1	41	31	40	10	10	30	18	21	18	47	48	34	9	6
32	29	18	41	30	19	38	8	22	14	47	20	35	22	50	26	26	33	42	28


